2
20
53
60 60
32 40 1 0
29 42 2 0
31 39 1 0
27 38 1 0
27 37 3 0
24 36 4 0
25 35 2 0
28 34 2 0
33 25 4 0
23 31 4 0
31 24 3 0
26 18 3 0
18 29 4 0
15 24 2 0
16 25 4 0
17 26 3 0
23 14 4 0
21 15 3 0
19 16 2 0
12 17 1 0

